4 
5  17 39 
6  04 24 43 57 
7  12 26 42 57 
8  12 27 42 57 
9  12 26 41 56 
10  11 26 41 56 
11  11 26 41 56 
12  11 26 41 56 
13  11 27 42 57 
14  12 27 42 57 
15  13 28 43 58 
16  13 28 43 58 
17  13 28 43 58 
18  13 28 43 58 
19  13 28 43 58 
20  13 28 44 58 
21  13 28 43 58 
22  13 30 44 
23  00 24 
0 
